68 67
92 22
49 12
91 4
61 17
52 3
75 84
5 48
32 75
13 40
16 15
31 93
62 72
0 79
37 21
37 21
54 72
3 86
94 83
21 49
18 1
38 19
25 63
92 75
98 66
92 49
54 3
48 10
27 99
50 6
39 12
37 66
38 73
64 42
41 37
39 5
99 15
32 99
29 52
32 43
72 29
4 25
18 18
93 69
60 16
49 71
82 67
9 37
58 47
5 51